data;


param FN:= 7;
param D:= 100;
param U_Original:=
         1         1       -4.088719e-01
         2         1       -8.989164e-01
         3         1       -5.078907e-02
         4         1        1.490930e+00
         5         1       -2.420622e-01
         6         1       -4.340635e-01
         7         1        8.350282e-01
         8         1        5.223201e-01
         9         1        2.517178e-01
        10         1        5.324748e-01
        11         1        6.184074e-01
        12         1       -1.979908e+00
        13         1        2.005141e+00
        14         1        1.212566e+00
        15         1       -1.695627e-01
        16         1       -6.200074e-01
        17         1       -7.568672e-01
        18         1        1.833381e+00
        19         1       -4.245247e-01
        20         1       -1.845322e+00
        21         1       -1.326215e+00
        22         1        1.584885e+00
        23         1        2.720758e-01
        24         1       -1.157091e+00
        25         1        1.407813e-01
        26         1        1.431179e+00
        27         1       -8.028849e-01
        28         1       -9.350068e-02
        29         1       -2.650498e+00
        30         1        4.236927e-02
        31         1        2.239019e+00
        32         1       -8.653326e-01
        33         1        1.079173e-01
        34         1        5.925833e-01
        35         1        2.780509e-01
        36         1        7.010061e-01
        37         1        4.298436e-01
        38         1       -1.798696e+00
        39         1        9.896992e-01
        40         1        7.897533e-01
        41         1        7.064228e-01
        42         1       -1.074206e+00
        43         1       -5.137258e-01
        44         1       -9.093696e-02
        45         1       -4.889896e-01
        46         1       -1.217593e-02
        47         1       -2.097779e+00
        48         1       -4.590245e-01
        49         1       -1.613805e-01
        50         1       -8.168258e-01
        51         1       -7.369766e-01
        52         1       -5.799071e-01
        53         1       -1.771904e+00
        54         1       -9.843355e-02
        55         1        6.893615e-01
        56         1       -8.581746e-01
        57         1        4.994801e-01
        58         1       -2.082452e-01
        59         1       -3.578633e-01
        60         1       -1.631767e-01
        61         1       -6.552310e-01
        62         1        3.929763e-01
        63         1        1.372909e+00
        64         1        1.851826e-01
        65         1       -5.895532e-01
        66         1       -1.106926e+00
        67         1        1.726046e+00
        68         1       -3.276216e-01
        69         1        7.579246e-01
        70         1        1.552634e+00
        71         1       -1.044740e+00
        72         1        1.105799e-01
        73         1        1.303408e+00
        74         1        1.115176e+00
        75         1        6.323237e-01
        76         1       -2.203356e-01
        77         1        1.040811e+00
        78         1       -5.995447e-02
        79         1        1.592784e+00
        80         1       -1.043348e-01
        81         1       -1.368795e-01
        82         1        5.311896e-01
        83         1       -7.686052e-02
        84         1       -3.307516e-01
        85         1       -5.334951e-01
        86         1       -1.245700e+00
        87         1       -2.716945e-01
        88         1        1.015512e+00
        89         1       -1.048923e+00
        90         1        4.128985e-01
        91         1        5.131971e-01
        92         1        6.898385e-01
        93         1        6.929443e-01
        94         1       -1.285168e+00
        95         1        1.137594e+00
        96         1        1.150060e-01
        97         1       -2.583873e-01
        98         1       -9.495456e-01
        99         1       -3.620449e-01
       100         1       -2.144256e+00
         1         2       -6.657001e-01
         2         2        1.035886e+00
         3         2       -6.611487e-02
         4         2       -9.545771e-01
         5         2        1.189260e-01
         6         2       -6.404481e-01
         7         2       -1.711651e-01
         8         2       -1.652618e+00
         9         2       -6.138921e-01
        10         2        2.137260e+00
        11         2       -5.540717e-01
        12         2       -2.393517e-01
        13         2       -1.661971e+00
        14         2        3.701052e-01
        15         2        6.997154e-01
        16         2       -4.988630e-01
        17         2       -5.265268e-01
        18         2        7.636444e-01
        19         2        3.602423e-01
        20         2        6.924930e-01
        21         2       -1.739056e-01
        22         2       -1.112288e+00
        23         2       -6.459743e-01
        24         2        2.878220e-01
        25         2       -2.291825e+00
        26         2        4.050597e-01
        27         2        1.391231e+00
        28         2        1.507579e+00
        29         2       -1.233620e+00
        30         2        4.235314e-01
        31         2       -7.131773e-01
        32         2        1.059158e+00
        33         2        7.080534e-01
        34         2        6.007630e-01
        35         2       -6.987581e-01
        36         2        1.476572e-01
        37         2        8.904095e-02
        38         2       -9.879179e-01
        39         2        6.888431e-01
        40         2       -7.554523e-01
        41         2       -4.286462e-01
        42         2        7.669113e-01
        43         2        2.589836e-01
        44         2       -1.674570e+00
        45         2        2.319573e-01
        46         2       -3.234178e-01
        47         2        1.926989e-01
        48         2        3.825154e-01
        49         2        2.042846e-01
        50         2        7.610794e-01
        51         2       -5.152760e-01
        52         2        1.792974e+00
        53         2       -4.911101e-01
        54         2       -4.293002e-01
        55         2       -2.736194e+00
        56         2       -4.346254e-01
        57         2       -1.065439e-01
        58         2        1.168610e+00
        59         2        1.160966e+00
        60         2       -1.404839e+00
        61         2       -1.255861e+00
        62         2        8.685957e-01
        63         2        2.802604e-01
        64         2        1.111788e-01
        65         2       -5.097571e-01
        66         2       -7.308654e-01
        67         2       -1.728902e-01
        68         2        1.065260e+00
        69         2       -1.141692e+00
        70         2        4.944490e-01
        71         2        9.656792e-01
        72         2       -1.616001e+00
        73         2       -7.021779e-01
        74         2       -2.340152e-01
        75         2        7.622341e-01
        76         2       -3.752770e-01
        77         2        2.159079e-01
        78         2        6.023399e-02
        79         2        2.723543e-01
        80         2       -3.502436e-01
        81         2       -1.129025e-02
        82         2        1.273509e+00
        83         2        1.085342e+00
        84         2       -2.779178e+00
        85         2       -7.022247e-01
        86         2       -2.990101e+00
        87         2        1.260257e-01
        88         2       -1.082962e-01
        89         2       -6.282671e-01
        90         2        4.456964e-01
        91         2       -9.469113e-01
        92         2        7.315564e-01
        93         2       -1.146434e-01
        94         2        1.377717e-01
        95         2       -6.005810e-02
        96         2        1.059318e-01
        97         2       -1.446152e+00
        98         2       -4.405560e-01
        99         2        7.775183e-01
       100         2       -1.242010e+00
         1         3        6.862862e-02
         2         3       -5.992490e-01
         3         3        9.782131e-02
         4         3       -2.747742e-01
         5         3       -4.161619e-01
         6         3        3.818839e-01
         7         3        1.842589e+00
         8         3       -3.739505e-01
         9         3       -1.031789e-01
        10         3       -1.093247e+00
        11         3        7.936577e-01
        12         3        1.783781e-01
        13         3        7.660477e-01
        14         3       -1.006973e-01
        15         3       -2.867297e-01
        16         3       -2.375212e+00
        17         3        2.850082e+00
        18         3        3.734125e-02
        19         3        7.450942e-01
        20         3       -2.736542e-01
        21         3       -3.949194e-01
        22         3        3.013813e-01
        23         3       -1.604970e+00
        24         3       -1.463720e-01
        25         3       -8.148507e-01
        26         3       -6.695696e-01
        27         3       -4.975969e-01
        28         3       -1.158382e-01
        29         3       -7.855345e-01
        30         3       -1.314308e-01
        31         3        2.439468e-01
        32         3       -1.361419e+00
        33         3       -4.079717e-01
        34         3       -4.618257e-01
        35         3       -7.976630e-01
        36         3       -1.734631e-01
        37         3       -5.303973e-01
        38         3        3.068543e-01
        39         3        5.334729e-01
        40         3        9.169230e-01
        41         3       -7.410895e-01
        42         3        1.129159e+00
        43         3       -1.280646e+00
        44         3        4.687708e-02
        45         3        1.066724e+00
        46         3        1.028405e+00
        47         3       -1.376117e-01
        48         3        1.209254e+00
        49         3       -1.944945e-01
        50         3        5.078147e-01
        51         3       -2.680240e-01
        52         3        4.850057e-01
        53         3       -1.416504e+00
        54         3       -3.982647e-01
        55         3       -1.972731e-01
        56         3       -1.372945e-01
        57         3       -1.489329e-01
        58         3       -1.823925e-01
        59         3        9.842626e-01
        60         3        1.175864e+00
        61         3        9.812065e-01
        62         3        7.946276e-01
        63         3        8.480362e-01
        64         3        1.022195e+00
        65         3       -1.000974e+00
        66         3       -5.113770e-01
        67         3       -1.487478e-01
        68         3        1.923840e-02
        69         3       -2.321559e-01
        70         3       -9.540323e-01
        71         3        3.194465e-01
        72         3       -2.396684e+00
        73         3        7.903353e-01
        74         3        1.299894e+00
        75         3        1.625740e+00
        76         3       -1.232716e+00
        77         3        9.115098e-01
        78         3       -4.266068e-01
        79         3       -3.007236e-01
        80         3        8.004688e-03
        81         3        7.433937e-01
        82         3        8.810107e-01
        83         3       -6.764920e-02
        84         3        1.142621e-01
        85         3       -1.107026e+00
        86         3       -9.610112e-01
        87         3       -4.706234e-01
        88         3        6.434053e-01
        89         3        4.126234e-01
        90         3        1.324475e-01
        91         3       -1.143521e+00
        92         3       -7.999353e-01
        93         3        1.167111e+00
        94         3       -1.278987e+00
        95         3        1.213550e+00
        96         3        1.950719e+00
        97         3       -2.727876e-02
        98         3        3.442598e-01
        99         3       -2.158676e+00
       100         3       -4.485381e-01
         1         4        1.548598e+00
         2         4       -1.183099e+00
         3         4       -1.224804e+00
         4         4       -1.537885e-01
         5         4        1.454449e+00
         6         4        8.122564e-01
         7         4       -3.577551e-01
         8         4       -2.605501e-02
         9         4       -6.505824e-02
        10         4       -3.274633e+00
        11         4       -3.015612e-02
        12         4        4.276454e-01
        13         4       -2.312485e-01
        14         4       -6.897161e-01
        15         4        4.721859e-01
        16         4       -1.395233e-01
        17         4        9.440282e-02
        18         4       -3.163407e-01
        19         4        4.830374e-01
        20         4       -9.554264e-01
        21         4       -5.901043e-01
        22         4       -6.598140e-01
        23         4        3.727896e-01
        24         4       -5.722620e-01
        25         4       -1.394167e+00
        26         4        1.696797e+00
        27         4        4.441986e-01
        28         4       -1.028691e+00
        29         4       -1.043264e+00
        30         4       -4.198202e-01
        31         4        1.531067e-01
        32         4        2.428860e-01
        33         4       -2.234749e-01
        34         4        8.183225e-02
        35         4        4.383999e-01
        36         4        1.991655e-01
        37         4       -6.621807e-01
        38         4        1.082700e+00
        39         4       -6.851849e-01
        40         4        6.389256e-02
        41         4       -4.297752e-01
        42         4       -1.134151e+00
        43         4        4.782454e-01
        44         4        1.256961e+00
        45         4       -1.328774e-01
        46         4       -6.359280e-01
        47         4       -1.368984e+00
        48         4        2.786398e-01
        49         4       -4.254216e-02
        50         4        7.975875e-01
        51         4        1.658879e-01
        52         4       -5.020029e-01
        53         4        6.825697e-02
        54         4       -4.901395e-02
        55         4        2.678097e-01
        56         4        5.117858e-01
        57         4       -4.694889e-01
        58         4        5.528017e-01
        59         4        1.472677e-01
        60         4       -6.106220e-01
        61         4       -1.303886e+00
        62         4        8.995919e-01
        63         4       -8.452964e-01
        64         4        2.879290e-01
        65         4       -5.674375e-01
        66         4       -1.851216e-01
        67         4        9.526473e-01
        68         4        1.515067e+00
        69         4        1.387735e+00
        70         4       -1.453110e+00
        71         4       -2.059279e-01
        72         4       -5.390853e-01
        73         4       -1.072645e+00
        74         4       -9.849501e-01
        75         4       -6.833478e-01
        76         4        8.008106e-01
        77         4        2.742728e-01
        78         4        9.731172e-01
        79         4        1.405098e+00
        80         4       -4.155258e-02
        81         4       -8.411809e-01
        82         4       -1.341823e+00
        83         4       -2.166723e-01
        84         4       -1.345962e+00
        85         4        1.345033e-01
        86         4       -3.987337e-01
        87         4       -1.440105e+00
        88         4        1.424351e+00
        89         4       -4.492502e-01
        90         4       -8.888529e-01
        91         4       -9.830627e-01
        92         4        6.927392e-01
        93         4        6.311616e-01
        94         4        1.109641e+00
        95         4        1.690985e-01
        96         4       -1.750355e+00
        97         4       -2.493845e-01
        98         4        2.963903e-02
        99         4       -1.995468e-01
       100         4        1.523860e-01
         1         5        1.151209e+00
         2         5        8.536162e-01
         3         5        2.879970e-01
         4         5        8.264919e-01
         5         5        3.713732e-01
         6         5       -3.535244e-01
         7         5       -6.982700e-01
         8         5        1.461762e+00
         9         5       -6.438599e-01
        10         5       -2.128564e-01
        11         5       -1.092403e+00
        12         5        6.592222e-01
        13         5       -5.976455e-01
        14         5       -1.990342e-01
        15         5       -9.112445e-01
        16         5       -8.545135e-01
        17         5        1.172872e+00
        18         5       -7.416382e-01
        19         5       -2.213510e-01
        20         5       -6.002201e-01
        21         5        7.874499e-01
        22         5        8.077506e-01
        23         5       -7.927885e-01
        24         5        6.598101e-02
        25         5        3.346049e-01
        26         5       -1.160300e+00
        27         5       -6.528694e-01
        28         5        1.597052e+00
        29         5        1.314587e-01
        30         5        9.142365e-01
        31         5       -5.224628e-01
        32         5       -7.369369e-01
        33         5        5.888716e-02
        34         5        3.853599e-01
        35         5       -7.586395e-01
        36         5        6.445617e-01
        37         5       -1.668518e-01
        38         5       -3.380649e-01
        39         5        5.413078e-01
        40         5        2.934676e-02
        41         5        6.243851e-01
        42         5       -1.910022e-01
        43         5        1.924974e-01
        44         5       -5.945861e-02
        45         5       -5.113598e-02
        46         5       -4.013031e-01
        47         5       -1.372548e+00
        48         5        5.887549e-01
        49         5        1.123981e+00
        50         5        3.146457e-01
        51         5        5.710825e-02
        52         5       -8.349436e-02
        53         5       -1.050454e+00
        54         5       -7.649770e-01
        55         5        2.999754e-02
        56         5        4.856683e-01
        57         5        7.335601e-01
        58         5        3.409408e-01
        59         5       -1.081216e+00
        60         5       -1.196649e+00
        61         5        2.631820e+00
        62         5        1.810471e-01
        63         5       -7.228606e-01
        64         5       -1.121832e+00
        65         5       -1.474467e+00
        66         5       -2.066400e+00
        67         5       -1.196947e+00
        68         5        3.289776e-01
        69         5       -1.140159e-01
        70         5        9.149618e-02
        71         5        3.418576e-02
        72         5       -1.093541e+00
        73         5        1.259798e+00
        74         5        6.255348e-01
        75         5        1.324002e+00
        76         5        7.642568e-01
        77         5        4.946802e-01
        78         5        3.769035e-01
        79         5       -5.188025e-01
        80         5       -1.148146e+00
        81         5        1.359490e-01
        82         5       -1.844180e+00
        83         5       -1.111940e+00
        84         5        7.214548e-01
        85         5       -1.149461e+00
        86         5       -5.179102e-01
        87         5       -2.121104e+00
        88         5        6.794831e-01
        89         5       -3.952494e-01
        90         5       -5.070594e-01
        91         5       -9.808601e-01
        92         5        2.229257e-01
        93         5        3.126701e-01
        94         5       -8.411464e-01
        95         5       -3.844520e-01
        96         5        1.730460e+00
        97         5        7.059649e-02
        98         5       -1.004856e+00
        99         5        6.953413e-01
       100         5        1.244351e+00
;
param X_Original:=
    1        2.381208e-01
    2       -1.481215e-01
    3        4.908942e-01
    4       -6.042000e-01
    5       -1.472503e+00
    6       -1.161224e+00
    7        9.420862e-02
    8       -2.654785e-01
    9       -2.240909e-01
   10       -4.074019e-01
   11       -1.087474e+00
   12       -2.444609e-01
   13       -5.289597e-03
   14        1.871373e-01
   15        4.343294e-01
   16        1.865569e-01
   17       -4.649667e-01
   18       -3.783660e-01
   19        4.228967e-01
   20       -1.686908e+00
   21       -6.470349e-01
   22        1.579624e+00
   23       -1.656369e+00
   24        5.074536e-02
   25       -4.876517e-01
   26       -2.121058e-01
   27       -6.694190e-01
   28       -1.451199e+00
   29        2.637895e-01
   30       -1.134004e+00
   31        5.252582e-01
   32       -1.086522e+00
   33        9.672182e-01
   34        5.008898e-01
   35        2.615379e-01
   36        2.801571e-01
   37       -2.247882e-01
   38        3.124139e+00
   39        4.597202e-01
   40       -7.336711e-02
   41        4.974819e-01
   42       -1.210886e+00
   43        1.153626e+00
   44        5.929732e-01
   45        1.479978e-01
   46       -1.181302e+00
   47       -2.601327e-01
   48       -5.238025e-01
   49       -9.062395e-01
   50       -7.324066e-02
   51       -2.975132e-01
   52       -1.283448e-01
   53        3.014015e-01
   54       -3.120385e-01
   55        5.963270e-01
   56        2.086679e+00
   57       -8.879929e-01
   58       -2.013599e+00
   59        3.367921e-01
   60        2.569093e+00
   61       -2.597904e-01
   62        4.357698e-01
   63        4.915771e-01
   64       -9.286418e-01
   65        1.593213e-01
   66        7.377353e-01
   67        1.991385e+00
   68       -2.951207e-01
   69        1.107170e-01
   70       -3.179043e+00
   71        7.484233e-01
   72       -1.572698e-01
   73       -4.194590e-01
   74       -9.527086e-01
   75        9.892901e-01
   76        6.511660e-01
   77       -7.742967e-01
   78        4.549991e-01
   79        1.394746e-01
   80        1.197048e-01
   81       -9.507589e-01
   82        3.408952e-01
   83       -1.842928e-01
   84        5.601228e-01
   85        1.488905e+00
   86       -1.409036e-01
   87        1.650156e+00
   88       -4.751167e-01
   89       -2.811688e-01
   90        3.819591e-01
   91        1.329830e+00
   92        1.660428e+00
   93       -2.391539e-01
   94        1.272269e+00
   95       -5.441314e-01
   96        1.038072e+00
   97       -2.915280e-01
   98       -4.159374e-01
   99       -5.444181e-01
  100        2.453100e-01
;
param outliervec_original :=
    1    1
    2    1
    3    1
    4    1
    5    1
    6    1
    7    1
    8    1
    9    0
   10    1
   11    1
   12    1
   13    1
   14    1
   15    1
   16    1
   17    1
   18    1
   19    0
   20    0
   21    1
   22    1
   23    1
   24    1
   25    1
   26    1
   27    1
   28    0
   29    1
   30    1
   31    1
   32    0
   33    1
   34    1
   35    0
   36    1
   37    1
   38    0
   39    1
   40    1
   41    1
   42    1
   43    1
   44    1
   45    1
   46    1
   47    1
   48    1
   49    1
   50    1
   51    1
   52    1
   53    0
   54    0
   55    1
   56    0
   57    1
   58    1
   59    1
   60    1
   61    1
   62    1
   63    1
   64    0
   65    1
   66    1
   67    1
   68    1
   69    1
   70    0
   71    1
   72    1
   73    1
   74    1
   75    1
   76    1
   77    1
   78    1
   79    1
   80    1
   81    0
   82    1
   83    1
   84    1
   85    1
   86    1
   87    1
   88    1
   89    1
   90    1
   91    1
   92    1
   93    1
   94    0
   95    0
   96    1
   97    1
   98    1
   99    1
  100    1
;
param d:= 57;
param r:=5;
param p:=0.840000;
param M:=1000;
param U:=
         1         1       -4.088719e-01
         2         1        1.490930e+00
         3         1        8.350282e-01
         4         1        5.223201e-01
         5         1       -1.979908e+00
         6         1        2.005141e+00
         7         1       -1.695627e-01
         8         1       -7.568672e-01
         9         1        1.833381e+00
        10         1       -4.245247e-01
        11         1       -1.326215e+00
        12         1       -1.157091e+00
        13         1        1.407813e-01
        14         1       -9.350068e-02
        15         1       -2.650498e+00
        16         1        4.236927e-02
        17         1        2.239019e+00
        18         1        2.780509e-01
        19         1        4.298436e-01
        20         1       -1.798696e+00
        21         1        7.897533e-01
        22         1       -1.074206e+00
        23         1       -9.093696e-02
        24         1       -4.889896e-01
        25         1       -4.590245e-01
        26         1       -1.613805e-01
        27         1       -8.168258e-01
        28         1       -7.369766e-01
        29         1       -5.799071e-01
        30         1        6.893615e-01
        31         1        4.994801e-01
        32         1       -3.578633e-01
        33         1       -1.631767e-01
        34         1        3.929763e-01
        35         1        1.372909e+00
        36         1        1.726046e+00
        37         1       -3.276216e-01
        38         1        1.552634e+00
        39         1        1.115176e+00
        40         1       -2.203356e-01
        41         1        1.040811e+00
        42         1       -5.995447e-02
        43         1        1.592784e+00
        44         1       -1.368795e-01
        45         1        5.311896e-01
        46         1       -7.686052e-02
        47         1       -3.307516e-01
        48         1       -5.334951e-01
        49         1       -2.716945e-01
        50         1        1.015512e+00
        51         1        4.128985e-01
        52         1        5.131971e-01
        53         1        6.929443e-01
        54         1       -1.285168e+00
        55         1        1.137594e+00
        56         1       -3.620449e-01
        57         1       -2.144256e+00
         1         2       -6.657001e-01
         2         2       -9.545771e-01
         3         2       -1.711651e-01
         4         2       -1.652618e+00
         5         2       -2.393517e-01
         6         2       -1.661971e+00
         7         2        6.997154e-01
         8         2       -5.265268e-01
         9         2        7.636444e-01
        10         2        3.602423e-01
        11         2       -1.739056e-01
        12         2        2.878220e-01
        13         2       -2.291825e+00
        14         2        1.507579e+00
        15         2       -1.233620e+00
        16         2        4.235314e-01
        17         2       -7.131773e-01
        18         2       -6.987581e-01
        19         2        8.904095e-02
        20         2       -9.879179e-01
        21         2       -7.554523e-01
        22         2        7.669113e-01
        23         2       -1.674570e+00
        24         2        2.319573e-01
        25         2        3.825154e-01
        26         2        2.042846e-01
        27         2        7.610794e-01
        28         2       -5.152760e-01
        29         2        1.792974e+00
        30         2       -2.736194e+00
        31         2       -1.065439e-01
        32         2        1.160966e+00
        33         2       -1.404839e+00
        34         2        8.685957e-01
        35         2        2.802604e-01
        36         2       -1.728902e-01
        37         2        1.065260e+00
        38         2        4.944490e-01
        39         2       -2.340152e-01
        40         2       -3.752770e-01
        41         2        2.159079e-01
        42         2        6.023399e-02
        43         2        2.723543e-01
        44         2       -1.129025e-02
        45         2        1.273509e+00
        46         2        1.085342e+00
        47         2       -2.779178e+00
        48         2       -7.022247e-01
        49         2        1.260257e-01
        50         2       -1.082962e-01
        51         2        4.456964e-01
        52         2       -9.469113e-01
        53         2       -1.146434e-01
        54         2        1.377717e-01
        55         2       -6.005810e-02
        56         2        7.775183e-01
        57         2       -1.242010e+00
         1         3        6.862862e-02
         2         3       -2.747742e-01
         3         3        1.842589e+00
         4         3       -3.739505e-01
         5         3        1.783781e-01
         6         3        7.660477e-01
         7         3       -2.867297e-01
         8         3        2.850082e+00
         9         3        3.734125e-02
        10         3        7.450942e-01
        11         3       -3.949194e-01
        12         3       -1.463720e-01
        13         3       -8.148507e-01
        14         3       -1.158382e-01
        15         3       -7.855345e-01
        16         3       -1.314308e-01
        17         3        2.439468e-01
        18         3       -7.976630e-01
        19         3       -5.303973e-01
        20         3        3.068543e-01
        21         3        9.169230e-01
        22         3        1.129159e+00
        23         3        4.687708e-02
        24         3        1.066724e+00
        25         3        1.209254e+00
        26         3       -1.944945e-01
        27         3        5.078147e-01
        28         3       -2.680240e-01
        29         3        4.850057e-01
        30         3       -1.972731e-01
        31         3       -1.489329e-01
        32         3        9.842626e-01
        33         3        1.175864e+00
        34         3        7.946276e-01
        35         3        8.480362e-01
        36         3       -1.487478e-01
        37         3        1.923840e-02
        38         3       -9.540323e-01
        39         3        1.299894e+00
        40         3       -1.232716e+00
        41         3        9.115098e-01
        42         3       -4.266068e-01
        43         3       -3.007236e-01
        44         3        7.433937e-01
        45         3        8.810107e-01
        46         3       -6.764920e-02
        47         3        1.142621e-01
        48         3       -1.107026e+00
        49         3       -4.706234e-01
        50         3        6.434053e-01
        51         3        1.324475e-01
        52         3       -1.143521e+00
        53         3        1.167111e+00
        54         3       -1.278987e+00
        55         3        1.213550e+00
        56         3       -2.158676e+00
        57         3       -4.485381e-01
         1         4        1.548598e+00
         2         4       -1.537885e-01
         3         4       -3.577551e-01
         4         4       -2.605501e-02
         5         4        4.276454e-01
         6         4       -2.312485e-01
         7         4        4.721859e-01
         8         4        9.440282e-02
         9         4       -3.163407e-01
        10         4        4.830374e-01
        11         4       -5.901043e-01
        12         4       -5.722620e-01
        13         4       -1.394167e+00
        14         4       -1.028691e+00
        15         4       -1.043264e+00
        16         4       -4.198202e-01
        17         4        1.531067e-01
        18         4        4.383999e-01
        19         4       -6.621807e-01
        20         4        1.082700e+00
        21         4        6.389256e-02
        22         4       -1.134151e+00
        23         4        1.256961e+00
        24         4       -1.328774e-01
        25         4        2.786398e-01
        26         4       -4.254216e-02
        27         4        7.975875e-01
        28         4        1.658879e-01
        29         4       -5.020029e-01
        30         4        2.678097e-01
        31         4       -4.694889e-01
        32         4        1.472677e-01
        33         4       -6.106220e-01
        34         4        8.995919e-01
        35         4       -8.452964e-01
        36         4        9.526473e-01
        37         4        1.515067e+00
        38         4       -1.453110e+00
        39         4       -9.849501e-01
        40         4        8.008106e-01
        41         4        2.742728e-01
        42         4        9.731172e-01
        43         4        1.405098e+00
        44         4       -8.411809e-01
        45         4       -1.341823e+00
        46         4       -2.166723e-01
        47         4       -1.345962e+00
        48         4        1.345033e-01
        49         4       -1.440105e+00
        50         4        1.424351e+00
        51         4       -8.888529e-01
        52         4       -9.830627e-01
        53         4        6.311616e-01
        54         4        1.109641e+00
        55         4        1.690985e-01
        56         4       -1.995468e-01
        57         4        1.523860e-01
         1         5        1.151209e+00
         2         5        8.264919e-01
         3         5       -6.982700e-01
         4         5        1.461762e+00
         5         5        6.592222e-01
         6         5       -5.976455e-01
         7         5       -9.112445e-01
         8         5        1.172872e+00
         9         5       -7.416382e-01
        10         5       -2.213510e-01
        11         5        7.874499e-01
        12         5        6.598101e-02
        13         5        3.346049e-01
        14         5        1.597052e+00
        15         5        1.314587e-01
        16         5        9.142365e-01
        17         5       -5.224628e-01
        18         5       -7.586395e-01
        19         5       -1.668518e-01
        20         5       -3.380649e-01
        21         5        2.934676e-02
        22         5       -1.910022e-01
        23         5       -5.945861e-02
        24         5       -5.113598e-02
        25         5        5.887549e-01
        26         5        1.123981e+00
        27         5        3.146457e-01
        28         5        5.710825e-02
        29         5       -8.349436e-02
        30         5        2.999754e-02
        31         5        7.335601e-01
        32         5       -1.081216e+00
        33         5       -1.196649e+00
        34         5        1.810471e-01
        35         5       -7.228606e-01
        36         5       -1.196947e+00
        37         5        3.289776e-01
        38         5        9.149618e-02
        39         5        6.255348e-01
        40         5        7.642568e-01
        41         5        4.946802e-01
        42         5        3.769035e-01
        43         5       -5.188025e-01
        44         5        1.359490e-01
        45         5       -1.844180e+00
        46         5       -1.111940e+00
        47         5        7.214548e-01
        48         5       -1.149461e+00
        49         5       -2.121104e+00
        50         5        6.794831e-01
        51         5       -5.070594e-01
        52         5       -9.808601e-01
        53         5        3.126701e-01
        54         5       -8.411464e-01
        55         5       -3.844520e-01
        56         5        6.953413e-01
        57         5        1.244351e+00
;

param theta:=
    1       -4.967307e-01
    2       -9.890657e-01
    3        4.826587e-02
    4        1.414875e+00
    5        9.757567e-01
;
param X_true:=
    1        4.224378e+00
    2        7.484271e-01
    3       -1.274735e+00
    4        2.649767e+00
    5        2.455955e+00
    6       -2.301661e-01
    7       -7.926927e-01
    8        2.168072e+00
    9       -2.871023e+00
   10        4.228967e-01
   11        1.036659e+00
   12       -4.508650e-01
   13        3.119662e-01
   14       -1.451199e+00
   15        1.321766e+00
   16       -1.894116e-01
   17       -7.496013e-01
   18        2.615379e-01
   19       -1.450647e+00
   20        3.124139e+00
   21        4.795867e-01
   22       -2.113436e+00
   23        3.421655e+00
   24       -3.044929e-01
   25        7.940489e-01
   26        9.445672e-01
   27        1.043489e+00
   28        1.286177e+00
   29       -2.258068e+00
   30        2.632487e+00
   31        5.922924e-02
   32       -1.757760e+00
   33       -4.384344e-01
   34        3.752918e-01
   35       -2.855028e+00
   36       -4.104458e-01
   37        1.494232e+00
   38       -3.179043e+00
   39       -1.012778e+00
   40        2.409609e+00
   41        2.478899e-01
   42        1.833258e+00
   43        5.028497e-01
   44       -9.507589e-01
   45       -5.052044e+00
   46       -2.565400e+00
   47        1.538271e+00
   48       -9.378261e-02
   49       -4.016615e+00
   50        2.329673e+00
   51       -2.422418e+00
   52       -1.897070e+00
   53        1.140975e+00
   54        1.272269e+00
   55       -5.441314e-01
   56       -1.832075e-01
   57        3.690415e+00
;
param X:=
    1        2.381208e-01
    2       -6.042000e-01
    3        9.420862e-02
    4       -2.654785e-01
    5       -2.444609e-01
    6       -5.289597e-03
    7        4.343294e-01
    8       -4.649667e-01
    9       -3.783660e-01
   10        4.228967e-01
   11       -6.470349e-01
   12        5.074536e-02
   13       -4.876517e-01
   14       -1.451199e+00
   15        2.637895e-01
   16       -1.134004e+00
   17        5.252582e-01
   18        2.615379e-01
   19       -2.247882e-01
   20        3.124139e+00
   21       -7.336711e-02
   22       -1.210886e+00
   23        5.929732e-01
   24        1.479978e-01
   25       -5.238025e-01
   26       -9.062395e-01
   27       -7.324066e-02
   28       -2.975132e-01
   29       -1.283448e-01
   30        5.963270e-01
   31       -8.879929e-01
   32        3.367921e-01
   33        2.569093e+00
   34        4.357698e-01
   35        4.915771e-01
   36        1.991385e+00
   37       -2.951207e-01
   38       -3.179043e+00
   39       -9.527086e-01
   40        6.511660e-01
   41       -7.742967e-01
   42        4.549991e-01
   43        1.394746e-01
   44       -9.507589e-01
   45        3.408952e-01
   46       -1.842928e-01
   47        5.601228e-01
   48        1.488905e+00
   49        1.650156e+00
   50       -4.751167e-01
   51        3.819591e-01
   52        1.329830e+00
   53       -2.391539e-01
   54        1.272269e+00
   55       -5.441314e-01
   56       -5.444181e-01
   57        2.453100e-01
;
param outliervec:=
    1    1
    2    1
    3    1
    4    1
    5    1
    6    1
    7    1
    8    1
    9    1
   10    0
   11    1
   12    1
   13    1
   14    0
   15    1
   16    1
   17    1
   18    0
   19    1
   20    0
   21    1
   22    1
   23    1
   24    1
   25    1
   26    1
   27    1
   28    1
   29    1
   30    1
   31    1
   32    1
   33    1
   34    1
   35    1
   36    1
   37    1
   38    0
   39    1
   40    1
   41    1
   42    1
   43    1
   44    0
   45    1
   46    1
   47    1
   48    1
   49    1
   50    1
   51    1
   52    1
   53    1
   54    0
   55    0
   56    1
   57    1
; 
param greedy_time :=         6.128996e-01
;